20171231 381600.00 311400.00
20170630 381591.03 311425.37
20170519 293531.56 233390.12
20170215 293531.56 233390.12
20160630 291086.96 233297.21
20160601 291086.96 233297.21
20151118 145543.48 116671.84
